p cnf 41 114
a 12 28 0
e 1 2 3 4 5 6 7 8 9 10 11 13 14 15 16 17 18 19 20 21 22 23 24 25 26 27 29 30 31 32 33 34 35 36 37 38 39 40 41 0
5 3 0
5 -4 0
-3 4 -5 0
7 -5 0
7 -6 0
5 6 -7 0
-8 2 0
-8 7 0
-2 -7 8 0
9 -1 0
9 -8 0
1 8 -9 0
-10 11 -12 0
10 -11 -12 0
-10 -11 12 0
10 11 12 0
-10 -12 -13 0
10 12 -13 0
-10 12 13 0
10 -12 13 0
14 13 0
14 -7 0
-13 7 -14 0
15 12 0
15 -5 0
-12 5 -15 0
-14 -15 -16 0
14 15 -16 0
-14 15 16 0
14 -15 16 0
17 -16 0
17 -3 0
16 3 -17 0
18 -9 0
18 17 0
9 -17 -18 0
20 -13 0
20 11 0
13 -11 -20 0
-21 -19 0
-21 -20 0
19 20 21 0
-22 6 0
-22 -10 0
-6 10 22 0
23 4 0
23 -22 0
-4 22 -23 0
-24 21 0
-24 23 0
-21 -23 24 0
-7 -6 -25 0
7 6 -25 0
-7 6 25 0
7 -6 25 0
26 25 0
26 -14 0
-25 14 -26 0
-27 4 0
-27 -5 0
-4 5 27 0
-27 -14 -28 0
27 14 -28 0
-27 14 28 0
27 -14 28 0
-29 13 0
-29 -12 0
-13 12 29 0
-30 -29 0
-30 -1 0
29 1 30 0
-7 31 -32 0
7 -31 -32 0
-7 -31 32 0
7 31 32 0
32 -31 -33 0
-32 31 -33 0
32 31 33 0
-32 -31 33 0
34 -4 -35 0
-34 4 -35 0
34 4 35 0
-34 -4 35 0
33 -35 -36 0
-33 35 -36 0
33 35 36 0
-33 -35 36 0
-37 30 0
-37 36 0
-30 -36 37 0
38 -28 0
38 -37 0
28 37 -38 0
-26 -38 -39 0
26 38 -39 0
-26 38 39 0
26 -38 39 0
-40 -24 0
-40 39 0
24 -39 40 0
41 -18 0
41 40 0
18 -40 -41 0
25 27 39 21 14 -19 32 0
-1 40 35 -3 -4 0
-7 40 35 -38 25 0
2 31 19 14 22 1 -37 34 0
4 -3 -17 -27 -30 -14 -23 7 0
-6 -34 -19 0
-2 -16 -34 -20 32 0
22 -29 16 -33 -23 15 0
6 -10 11 -15 0
-21 34 14 -18 -22 0
41 0
